NAME CFLP
ROWS
 N  OBJ
 E  demand_1
 E  demand_2
 E  demand_3
 E  demand_4
 E  demand_5
 E  demand_6
 E  demand_7
 E  demand_8
 E  demand_9
 E  demand_10
 E  demand_11
 E  demand_12
 E  demand_13
 E  demand_14
 E  demand_15
 E  demand_16
 E  demand_17
 E  demand_18
 E  demand_19
 E  demand_20
 E  demand_21
 E  demand_22
 E  demand_23
 E  demand_24
 E  demand_25
 E  demand_26
 E  demand_27
 E  demand_28
 E  demand_29
 E  demand_30
 L  c_disjunction_1_diajunct_1
 L  c_disjunction_1_disjunct_2
 E  R32     
 L  c_disjunction_2_diajunct_1
 L  c_disjunction_2_disjunct_2
 E  R35     
 L  c_disjunction_3_diajunct_1
 L  c_disjunction_3_disjunct_2
 E  R38     
 L  c_disjunction_4_diajunct_1
 L  c_disjunction_4_disjunct_2
 E  R41     
 L  c_disjunction_5_diajunct_1
 L  c_disjunction_5_disjunct_2
 E  R44     
 L  c_disjunction_6_diajunct_1
 L  c_disjunction_6_disjunct_2
 E  R47     
 L  c_disjunction_7_diajunct_1
 L  c_disjunction_7_disjunct_2
 E  R50     
 L  c_disjunction_8_diajunct_1
 L  c_disjunction_8_disjunct_2
 E  R53     
 L  c_disjunction_9_diajunct_1
 L  c_disjunction_9_disjunct_2
 E  R56     
 L  c_disjunction_10_diajunct_1
 L  c_disjunction_10_disjunct_2
 E  R59     
 L  c_disjunction_11_diajunct_1
 L  c_disjunction_11_disjunct_2
 E  R62     
 L  c_disjunction_12_diajunct_1
 L  c_disjunction_12_disjunct_2
 E  R65     
 L  c_disjunction_13_diajunct_1
 L  c_disjunction_13_disjunct_2
 E  R68     
 L  c_disjunction_14_diajunct_1
 L  c_disjunction_14_disjunct_2
 E  R71     
 L  c_disjunction_15_diajunct_1
 L  c_disjunction_15_disjunct_2
 E  R74     
 L  c_disjunction_16_diajunct_1
 L  c_disjunction_16_disjunct_2
 E  R77     
 L  c_disjunction_17_diajunct_1
 L  c_disjunction_17_disjunct_2
 E  R80     
 L  c_disjunction_18_diajunct_1
 L  c_disjunction_18_disjunct_2
 E  R83     
 L  c_disjunction_19_diajunct_1
 L  c_disjunction_19_disjunct_2
 E  R86     
 L  c_disjunction_20_diajunct_1
 L  c_disjunction_20_disjunct_2
 E  R89     
 L  c_disjunction_21_diajunct_1
 L  c_disjunction_21_disjunct_2
 E  R92     
 L  c_disjunction_22_diajunct_1
 L  c_disjunction_22_disjunct_2
 E  R95     
 L  c_disjunction_23_diajunct_1
 L  c_disjunction_23_disjunct_2
 E  R98     
 L  c_disjunction_24_diajunct_1
 L  c_disjunction_24_disjunct_2
 E  R101    
 L  c_disjunction_25_diajunct_1
 L  c_disjunction_25_disjunct_2
 E  R104    
 L  c_disjunction_26_diajunct_1
 L  c_disjunction_26_disjunct_2
 E  R107    
 L  c_disjunction_27_diajunct_1
 L  c_disjunction_27_disjunct_2
 E  R110    
 L  c_disjunction_28_diajunct_1
 L  c_disjunction_28_disjunct_2
 E  R113    
 L  c_disjunction_29_diajunct_1
 L  c_disjunction_29_disjunct_2
 E  R116    
 L  c_disjunction_30_diajunct_1
 L  c_disjunction_30_disjunct_2
 E  R119    
COLUMNS
    MARKER    'MARKER'                 'INTORG'
    ind_disjunction_1_disjunct_1  OBJ       1145
    ind_disjunction_1_disjunct_1  c_disjunction_1_diajunct_1  -109
    ind_disjunction_1_disjunct_1  R32       1
    ind_disjunction_2_disjunct_1  OBJ       1145
    ind_disjunction_2_disjunct_1  c_disjunction_2_diajunct_1  -109
    ind_disjunction_2_disjunct_1  R35       1
    ind_disjunction_3_disjunct_1  OBJ       1145
    ind_disjunction_3_disjunct_1  c_disjunction_3_diajunct_1  -109
    ind_disjunction_3_disjunct_1  R38       1
    ind_disjunction_4_disjunct_1  OBJ       1145
    ind_disjunction_4_disjunct_1  c_disjunction_4_diajunct_1  -109
    ind_disjunction_4_disjunct_1  R41       1
    ind_disjunction_5_disjunct_1  OBJ       1145
    ind_disjunction_5_disjunct_1  c_disjunction_5_diajunct_1  -109
    ind_disjunction_5_disjunct_1  R44       1
    ind_disjunction_6_disjunct_1  OBJ       1145
    ind_disjunction_6_disjunct_1  c_disjunction_6_diajunct_1  -109
    ind_disjunction_6_disjunct_1  R47       1
    ind_disjunction_7_disjunct_1  OBJ       1145
    ind_disjunction_7_disjunct_1  c_disjunction_7_diajunct_1  -109
    ind_disjunction_7_disjunct_1  R50       1
    ind_disjunction_8_disjunct_1  OBJ       1145
    ind_disjunction_8_disjunct_1  c_disjunction_8_diajunct_1  -109
    ind_disjunction_8_disjunct_1  R53       1
    ind_disjunction_9_disjunct_1  OBJ       1145
    ind_disjunction_9_disjunct_1  c_disjunction_9_diajunct_1  -109
    ind_disjunction_9_disjunct_1  R56       1
    ind_disjunction_10_disjunct_1  OBJ       1145
    ind_disjunction_10_disjunct_1  c_disjunction_10_diajunct_1  -109
    ind_disjunction_10_disjunct_1  R59       1
    ind_disjunction_11_disjunct_1  OBJ       1145
    ind_disjunction_11_disjunct_1  c_disjunction_11_diajunct_1  -109
    ind_disjunction_11_disjunct_1  R62       1
    ind_disjunction_12_disjunct_1  OBJ       1145
    ind_disjunction_12_disjunct_1  c_disjunction_12_diajunct_1  -109
    ind_disjunction_12_disjunct_1  R65       1
    ind_disjunction_13_disjunct_1  OBJ       1145
    ind_disjunction_13_disjunct_1  c_disjunction_13_diajunct_1  -109
    ind_disjunction_13_disjunct_1  R68       1
    ind_disjunction_14_disjunct_1  OBJ       1145
    ind_disjunction_14_disjunct_1  c_disjunction_14_diajunct_1  -109
    ind_disjunction_14_disjunct_1  R71       1
    ind_disjunction_15_disjunct_1  OBJ       1145
    ind_disjunction_15_disjunct_1  c_disjunction_15_diajunct_1  -109
    ind_disjunction_15_disjunct_1  R74       1
    ind_disjunction_16_disjunct_1  OBJ       1145
    ind_disjunction_16_disjunct_1  c_disjunction_16_diajunct_1  -109
    ind_disjunction_16_disjunct_1  R77       1
    ind_disjunction_17_disjunct_1  OBJ       1145
    ind_disjunction_17_disjunct_1  c_disjunction_17_diajunct_1  -109
    ind_disjunction_17_disjunct_1  R80       1
    ind_disjunction_18_disjunct_1  OBJ       1145
    ind_disjunction_18_disjunct_1  c_disjunction_18_diajunct_1  -109
    ind_disjunction_18_disjunct_1  R83       1
    ind_disjunction_19_disjunct_1  OBJ       1145
    ind_disjunction_19_disjunct_1  c_disjunction_19_diajunct_1  -109
    ind_disjunction_19_disjunct_1  R86       1
    ind_disjunction_20_disjunct_1  OBJ       1145
    ind_disjunction_20_disjunct_1  c_disjunction_20_diajunct_1  -109
    ind_disjunction_20_disjunct_1  R89       1
    ind_disjunction_21_disjunct_1  OBJ       1145
    ind_disjunction_21_disjunct_1  c_disjunction_21_diajunct_1  -109
    ind_disjunction_21_disjunct_1  R92       1
    ind_disjunction_22_disjunct_1  OBJ       1145
    ind_disjunction_22_disjunct_1  c_disjunction_22_diajunct_1  -109
    ind_disjunction_22_disjunct_1  R95       1
    ind_disjunction_23_disjunct_1  OBJ       1145
    ind_disjunction_23_disjunct_1  c_disjunction_23_diajunct_1  -109
    ind_disjunction_23_disjunct_1  R98       1
    ind_disjunction_24_disjunct_1  OBJ       1145
    ind_disjunction_24_disjunct_1  c_disjunction_24_diajunct_1  -109
    ind_disjunction_24_disjunct_1  R101      1
    ind_disjunction_25_disjunct_1  OBJ       1145
    ind_disjunction_25_disjunct_1  c_disjunction_25_diajunct_1  -109
    ind_disjunction_25_disjunct_1  R104      1
    ind_disjunction_26_disjunct_1  OBJ       1145
    ind_disjunction_26_disjunct_1  c_disjunction_26_diajunct_1  -109
    ind_disjunction_26_disjunct_1  R107      1
    ind_disjunction_27_disjunct_1  OBJ       1145
    ind_disjunction_27_disjunct_1  c_disjunction_27_diajunct_1  -109
    ind_disjunction_27_disjunct_1  R110      1
    ind_disjunction_28_disjunct_1  OBJ       1145
    ind_disjunction_28_disjunct_1  c_disjunction_28_diajunct_1  -109
    ind_disjunction_28_disjunct_1  R113      1
    ind_disjunction_29_disjunct_1  OBJ       1145
    ind_disjunction_29_disjunct_1  c_disjunction_29_diajunct_1  -109
    ind_disjunction_29_disjunct_1  R116      1
    ind_disjunction_30_disjunct_1  OBJ       1145
    ind_disjunction_30_disjunct_1  c_disjunction_30_diajunct_1  -109
    ind_disjunction_30_disjunct_1  R119      1
    ind_disjunction_1_disjunct_2  c_disjunction_1_disjunct_2  1
    ind_disjunction_1_disjunct_2  R32       1
    ind_disjunction_2_disjunct_2  c_disjunction_2_disjunct_2  5
    ind_disjunction_2_disjunct_2  R35       1
    ind_disjunction_3_disjunct_2  c_disjunction_3_disjunct_2  4
    ind_disjunction_3_disjunct_2  R38       1
    ind_disjunction_4_disjunct_2  c_disjunction_4_disjunct_2  1
    ind_disjunction_4_disjunct_2  R41       1
    ind_disjunction_5_disjunct_2  c_disjunction_5_disjunct_2  2
    ind_disjunction_5_disjunct_2  R44       1
    ind_disjunction_6_disjunct_2  c_disjunction_6_disjunct_2  3
    ind_disjunction_6_disjunct_2  R47       1
    ind_disjunction_7_disjunct_2  c_disjunction_7_disjunct_2  5
    ind_disjunction_7_disjunct_2  R50       1
    ind_disjunction_8_disjunct_2  c_disjunction_8_disjunct_2  3
    ind_disjunction_8_disjunct_2  R53       1
    ind_disjunction_9_disjunct_2  c_disjunction_9_disjunct_2  3
    ind_disjunction_9_disjunct_2  R56       1
    ind_disjunction_10_disjunct_2  c_disjunction_10_disjunct_2  3
    ind_disjunction_10_disjunct_2  R59       1
    ind_disjunction_11_disjunct_2  c_disjunction_11_disjunct_2  3
    ind_disjunction_11_disjunct_2  R62       1
    ind_disjunction_12_disjunct_2  c_disjunction_12_disjunct_2  4
    ind_disjunction_12_disjunct_2  R65       1
    ind_disjunction_13_disjunct_2  c_disjunction_13_disjunct_2  4
    ind_disjunction_13_disjunct_2  R68       1
    ind_disjunction_14_disjunct_2  c_disjunction_14_disjunct_2  4
    ind_disjunction_14_disjunct_2  R71       1
    ind_disjunction_15_disjunct_2  c_disjunction_15_disjunct_2  1
    ind_disjunction_15_disjunct_2  R74       1
    ind_disjunction_16_disjunct_2  c_disjunction_16_disjunct_2  4
    ind_disjunction_16_disjunct_2  R77       1
    ind_disjunction_17_disjunct_2  c_disjunction_17_disjunct_2  3
    ind_disjunction_17_disjunct_2  R80       1
    ind_disjunction_18_disjunct_2  c_disjunction_18_disjunct_2  2
    ind_disjunction_18_disjunct_2  R83       1
    ind_disjunction_19_disjunct_2  c_disjunction_19_disjunct_2  3
    ind_disjunction_19_disjunct_2  R86       1
    ind_disjunction_20_disjunct_2  c_disjunction_20_disjunct_2  3
    ind_disjunction_20_disjunct_2  R89       1
    ind_disjunction_21_disjunct_2  c_disjunction_21_disjunct_2  4
    ind_disjunction_21_disjunct_2  R92       1
    ind_disjunction_22_disjunct_2  c_disjunction_22_disjunct_2  2
    ind_disjunction_22_disjunct_2  R95       1
    ind_disjunction_23_disjunct_2  c_disjunction_23_disjunct_2  5
    ind_disjunction_23_disjunct_2  R98       1
    ind_disjunction_24_disjunct_2  c_disjunction_24_disjunct_2  2
    ind_disjunction_24_disjunct_2  R101      1
    ind_disjunction_25_disjunct_2  c_disjunction_25_disjunct_2  2
    ind_disjunction_25_disjunct_2  R104      1
    ind_disjunction_26_disjunct_2  c_disjunction_26_disjunct_2  4
    ind_disjunction_26_disjunct_2  R107      1
    ind_disjunction_27_disjunct_2  c_disjunction_27_disjunct_2  2
    ind_disjunction_27_disjunct_2  R110      1
    ind_disjunction_28_disjunct_2  c_disjunction_28_disjunct_2  1
    ind_disjunction_28_disjunct_2  R113      1
    ind_disjunction_29_disjunct_2  c_disjunction_29_disjunct_2  5
    ind_disjunction_29_disjunct_2  R116      1
    ind_disjunction_30_disjunct_2  c_disjunction_30_disjunct_2  2
    ind_disjunction_30_disjunct_2  R119      1
    x[1,1]    demand_1  1
    x[1,1]    c_disjunction_1_diajunct_1  25
    x[1,1]    c_disjunction_1_disjunct_2  1
    x[20,1]   OBJ       38.8
    x[20,1]   demand_1  1
    x[20,1]   c_disjunction_20_diajunct_1  25
    x[20,1]   c_disjunction_20_disjunct_2  1
    x[19,1]   OBJ       45.2
    x[19,1]   demand_1  1
    x[19,1]   c_disjunction_19_diajunct_1  25
    x[19,1]   c_disjunction_19_disjunct_2  1
    x[2,2]    demand_2  1
    x[2,2]    c_disjunction_2_diajunct_1  22
    x[2,2]    c_disjunction_2_disjunct_2  1
    x[11,2]   OBJ       9.3
    x[11,2]   demand_2  1
    x[11,2]   c_disjunction_11_diajunct_1  22
    x[11,2]   c_disjunction_11_disjunct_2  1
    x[24,2]   OBJ       28.8
    x[24,2]   demand_2  1
    x[24,2]   c_disjunction_24_diajunct_1  22
    x[24,2]   c_disjunction_24_disjunct_2  1
    x[3,3]    demand_3  1
    x[3,3]    c_disjunction_3_diajunct_1  15
    x[3,3]    c_disjunction_3_disjunct_2  1
    x[21,3]   OBJ       7.2
    x[21,3]   demand_3  1
    x[21,3]   c_disjunction_21_diajunct_1  15
    x[21,3]   c_disjunction_21_disjunct_2  1
    x[16,3]   OBJ       23.2
    x[16,3]   demand_3  1
    x[16,3]   c_disjunction_16_diajunct_1  15
    x[16,3]   c_disjunction_16_disjunct_2  1
    x[4,4]    demand_4  1
    x[4,4]    c_disjunction_4_diajunct_1  6
    x[4,4]    c_disjunction_4_disjunct_2  1
    x[17,4]   OBJ       13.9
    x[17,4]   demand_4  1
    x[17,4]   c_disjunction_17_diajunct_1  6
    x[17,4]   c_disjunction_17_disjunct_2  1
    x[2,4]    OBJ       15.6
    x[2,4]    demand_4  1
    x[2,4]    c_disjunction_2_diajunct_1  6
    x[2,4]    c_disjunction_2_disjunct_2  1
    x[5,5]    demand_5  1
    x[5,5]    c_disjunction_5_diajunct_1  24
    x[5,5]    c_disjunction_5_disjunct_2  1
    x[6,5]    OBJ       22.3
    x[6,5]    demand_5  1
    x[6,5]    c_disjunction_6_diajunct_1  24
    x[6,5]    c_disjunction_6_disjunct_2  1
    x[12,5]   OBJ       29.9
    x[12,5]   demand_5  1
    x[12,5]   c_disjunction_12_diajunct_1  24
    x[12,5]   c_disjunction_12_disjunct_2  1
    x[6,6]    demand_6  1
    x[6,6]    c_disjunction_6_diajunct_1  20
    x[6,6]    c_disjunction_6_disjunct_2  1
    x[5,6]    OBJ       18.6
    x[5,6]    demand_6  1
    x[5,6]    c_disjunction_5_diajunct_1  20
    x[5,6]    c_disjunction_5_disjunct_2  1
    x[9,6]    OBJ       20.3
    x[9,6]    demand_6  1
    x[9,6]    c_disjunction_9_diajunct_1  20
    x[9,6]    c_disjunction_9_disjunct_2  1
    x[7,7]    demand_7  1
    x[7,7]    c_disjunction_7_diajunct_1  9
    x[7,7]    c_disjunction_7_disjunct_2  1
    x[23,7]   OBJ       5.8
    x[23,7]   demand_7  1
    x[23,7]   c_disjunction_23_diajunct_1  9
    x[23,7]   c_disjunction_23_disjunct_2  1
    x[30,7]   OBJ       6.3
    x[30,7]   demand_7  1
    x[30,7]   c_disjunction_30_diajunct_1  9
    x[30,7]   c_disjunction_30_disjunct_2  1
    x[8,8]    demand_8  1
    x[8,8]    c_disjunction_8_diajunct_1  18
    x[8,8]    c_disjunction_8_disjunct_2  1
    x[20,8]   OBJ       28.6
    x[20,8]   demand_8  1
    x[20,8]   c_disjunction_20_diajunct_1  18
    x[20,8]   c_disjunction_20_disjunct_2  1
    x[18,8]   OBJ       30.1
    x[18,8]   demand_8  1
    x[18,8]   c_disjunction_18_diajunct_1  18
    x[18,8]   c_disjunction_18_disjunct_2  1
    x[9,9]    demand_9  1
    x[9,9]    c_disjunction_9_diajunct_1  29
    x[9,9]    c_disjunction_9_disjunct_2  1
    x[6,9]    OBJ       29.4
    x[6,9]    demand_9  1
    x[6,9]    c_disjunction_6_diajunct_1  29
    x[6,9]    c_disjunction_6_disjunct_2  1
    x[10,9]   OBJ       48.9
    x[10,9]   demand_9  1
    x[10,9]   c_disjunction_10_diajunct_1  29
    x[10,9]   c_disjunction_10_disjunct_2  1
    x[10,10]  demand_10  1
    x[10,10]  c_disjunction_10_diajunct_1  35
    x[10,10]  c_disjunction_10_disjunct_2  1
    x[9,10]   OBJ       59
    x[9,10]   demand_10  1
    x[9,10]   c_disjunction_9_diajunct_1  35
    x[9,10]   c_disjunction_9_disjunct_2  1
    x[25,10]  OBJ       66.6
    x[25,10]  demand_10  1
    x[25,10]  c_disjunction_25_diajunct_1  35
    x[25,10]  c_disjunction_25_disjunct_2  1
    x[11,11]  demand_11  1
    x[11,11]  c_disjunction_11_diajunct_1  17
    x[11,11]  c_disjunction_11_disjunct_2  1
    x[2,11]   OBJ       7.2
    x[2,11]   demand_11  1
    x[2,11]   c_disjunction_2_diajunct_1  17
    x[2,11]   c_disjunction_2_disjunct_2  1
    x[22,11]  OBJ       21.5
    x[22,11]  demand_11  1
    x[22,11]  c_disjunction_22_diajunct_1  17
    x[22,11]  c_disjunction_22_disjunct_2  1
    x[12,12]  demand_12  1
    x[12,12]  c_disjunction_12_diajunct_1  12
    x[12,12]  c_disjunction_12_disjunct_2  1
    x[14,12]  OBJ       9.1
    x[14,12]  demand_12  1
    x[14,12]  c_disjunction_14_diajunct_1  12
    x[14,12]  c_disjunction_14_disjunct_2  1
    x[29,12]  OBJ       9.6
    x[29,12]  demand_12  1
    x[29,12]  c_disjunction_29_diajunct_1  12
    x[29,12]  c_disjunction_29_disjunct_2  1
    x[13,13]  demand_13  1
    x[13,13]  c_disjunction_13_diajunct_1  27
    x[13,13]  c_disjunction_13_disjunct_2  1
    x[17,13]  OBJ       28.6
    x[17,13]  demand_13  1
    x[17,13]  c_disjunction_17_diajunct_1  27
    x[17,13]  c_disjunction_17_disjunct_2  1
    x[26,13]  OBJ       33
    x[26,13]  demand_13  1
    x[26,13]  c_disjunction_26_diajunct_1  27
    x[26,13]  c_disjunction_26_disjunct_2  1
    x[14,14]  demand_14  1
    x[14,14]  c_disjunction_14_diajunct_1  13
    x[14,14]  c_disjunction_14_disjunct_2  1
    x[29,14]  OBJ       3.1
    x[29,14]  demand_14  1
    x[29,14]  c_disjunction_29_diajunct_1  13
    x[29,14]  c_disjunction_29_disjunct_2  1
    x[12,14]  OBJ       9.8
    x[12,14]  demand_14  1
    x[12,14]  c_disjunction_12_diajunct_1  13
    x[12,14]  c_disjunction_12_disjunct_2  1
    x[15,15]  demand_15  1
    x[15,15]  c_disjunction_15_diajunct_1  35
    x[15,15]  c_disjunction_15_disjunct_2  1
    x[3,15]   OBJ       82.7
    x[3,15]   demand_15  1
    x[3,15]   c_disjunction_3_diajunct_1  35
    x[3,15]   c_disjunction_3_disjunct_2  1
    x[21,15]  OBJ       92.1
    x[21,15]  demand_15  1
    x[21,15]  c_disjunction_21_diajunct_1  35
    x[21,15]  c_disjunction_21_disjunct_2  1
    x[16,16]  demand_16  1
    x[16,16]  c_disjunction_16_diajunct_1  11
    x[16,16]  c_disjunction_16_disjunct_2  1
    x[26,16]  OBJ       6.1
    x[26,16]  demand_16  1
    x[26,16]  c_disjunction_26_diajunct_1  11
    x[26,16]  c_disjunction_26_disjunct_2  1
    x[21,16]  OBJ       11.7
    x[21,16]  demand_16  1
    x[21,16]  c_disjunction_21_diajunct_1  11
    x[21,16]  c_disjunction_21_disjunct_2  1
    x[17,17]  demand_17  1
    x[17,17]  c_disjunction_17_diajunct_1  5
    x[17,17]  c_disjunction_17_disjunct_2  1
    x[13,17]  OBJ       5.3
    x[13,17]  demand_17  1
    x[13,17]  c_disjunction_13_diajunct_1  5
    x[13,17]  c_disjunction_13_disjunct_2  1
    x[26,17]  OBJ       6.3
    x[26,17]  demand_17  1
    x[26,17]  c_disjunction_26_diajunct_1  5
    x[26,17]  c_disjunction_26_disjunct_2  1
    x[18,18]  demand_18  1
    x[18,18]  c_disjunction_18_diajunct_1  25
    x[18,18]  c_disjunction_18_disjunct_2  1
    x[8,18]   OBJ       41.8
    x[8,18]   demand_18  1
    x[8,18]   c_disjunction_8_diajunct_1  25
    x[8,18]   c_disjunction_8_disjunct_2  1
    x[3,18]   OBJ       42
    x[3,18]   demand_18  1
    x[3,18]   c_disjunction_3_diajunct_1  25
    x[3,18]   c_disjunction_3_disjunct_2  1
    x[19,19]  demand_19  1
    x[19,19]  c_disjunction_19_diajunct_1  16
    x[19,19]  c_disjunction_19_disjunct_2  1
    x[23,19]  OBJ       11.4
    x[23,19]  demand_19  1
    x[23,19]  c_disjunction_23_diajunct_1  16
    x[23,19]  c_disjunction_23_disjunct_2  1
    x[7,19]   OBJ       11.6
    x[7,19]   demand_19  1
    x[7,19]   c_disjunction_7_diajunct_1  16
    x[7,19]   c_disjunction_7_disjunct_2  1
    x[20,20]  demand_20  1
    x[20,20]  c_disjunction_20_diajunct_1  23
    x[20,20]  c_disjunction_20_disjunct_2  1
    x[14,20]  OBJ       26
    x[14,20]  demand_20  1
    x[14,20]  c_disjunction_14_diajunct_1  23
    x[14,20]  c_disjunction_14_disjunct_2  1
    x[29,20]  OBJ       30.8
    x[29,20]  demand_20  1
    x[29,20]  c_disjunction_29_diajunct_1  23
    x[29,20]  c_disjunction_29_disjunct_2  1
    x[21,21]  demand_21  1
    x[21,21]  c_disjunction_21_diajunct_1  15
    x[21,21]  c_disjunction_21_disjunct_2  1
    x[3,21]   OBJ       7.2
    x[3,21]   demand_21  1
    x[3,21]   c_disjunction_3_diajunct_1  15
    x[3,21]   c_disjunction_3_disjunct_2  1
    x[16,21]  OBJ       16
    x[16,21]  demand_21  1
    x[16,21]  c_disjunction_16_diajunct_1  15
    x[16,21]  c_disjunction_16_disjunct_2  1
    x[22,22]  demand_22  1
    x[22,22]  c_disjunction_22_diajunct_1  9
    x[22,22]  c_disjunction_22_disjunct_2  1
    x[11,22]  OBJ       11.4
    x[11,22]  demand_22  1
    x[11,22]  c_disjunction_11_diajunct_1  9
    x[11,22]  c_disjunction_11_disjunct_2  1
    x[2,22]   OBJ       14.6
    x[2,22]   demand_22  1
    x[2,22]   c_disjunction_2_diajunct_1  9
    x[2,22]   c_disjunction_2_disjunct_2  1
    x[23,23]  demand_23  1
    x[23,23]  c_disjunction_23_diajunct_1  11
    x[23,23]  c_disjunction_23_disjunct_2  1
    x[7,23]   OBJ       7.1
    x[7,23]   demand_23  1
    x[7,23]   c_disjunction_7_diajunct_1  11
    x[7,23]   c_disjunction_7_disjunct_2  1
    x[19,23]  OBJ       7.8
    x[19,23]  demand_23  1
    x[19,23]  c_disjunction_19_diajunct_1  11
    x[19,23]  c_disjunction_19_disjunct_2  1
    x[24,24]  demand_24  1
    x[24,24]  c_disjunction_24_diajunct_1  25
    x[24,24]  c_disjunction_24_disjunct_2  1
    x[2,24]   OBJ       32.7
    x[2,24]   demand_24  1
    x[2,24]   c_disjunction_2_diajunct_1  25
    x[2,24]   c_disjunction_2_disjunct_2  1
    x[13,24]  OBJ       33.3
    x[13,24]  demand_24  1
    x[13,24]  c_disjunction_13_diajunct_1  25
    x[13,24]  c_disjunction_13_disjunct_2  1
    x[25,25]  demand_25  1
    x[25,25]  c_disjunction_25_diajunct_1  8
    x[25,25]  c_disjunction_25_disjunct_2  1
    x[10,25]  OBJ       15.2
    x[10,25]  demand_25  1
    x[10,25]  c_disjunction_10_diajunct_1  8
    x[10,25]  c_disjunction_10_disjunct_2  1
    x[8,25]   OBJ       22
    x[8,25]   demand_25  1
    x[8,25]   c_disjunction_8_diajunct_1  8
    x[8,25]   c_disjunction_8_disjunct_2  1
    x[26,26]  demand_26  1
    x[26,26]  c_disjunction_26_diajunct_1  13
    x[26,26]  c_disjunction_26_disjunct_2  1
    x[16,26]  OBJ       7.2
    x[16,26]  demand_26  1
    x[16,26]  c_disjunction_16_diajunct_1  13
    x[16,26]  c_disjunction_16_disjunct_2  1
    x[13,26]  OBJ       15.9
    x[13,26]  demand_26  1
    x[13,26]  c_disjunction_13_diajunct_1  13
    x[13,26]  c_disjunction_13_disjunct_2  1
    x[27,27]  demand_27  1
    x[27,27]  c_disjunction_27_diajunct_1  28
    x[27,27]  c_disjunction_27_disjunct_2  1
    x[23,27]  OBJ       21
    x[23,27]  demand_27  1
    x[23,27]  c_disjunction_23_diajunct_1  28
    x[23,27]  c_disjunction_23_disjunct_2  1
    x[7,27]   OBJ       23.8
    x[7,27]   demand_27  1
    x[7,27]   c_disjunction_7_diajunct_1  28
    x[7,27]   c_disjunction_7_disjunct_2  1
    x[28,28]  demand_28  1
    x[28,28]  c_disjunction_28_diajunct_1  11
    x[28,28]  c_disjunction_28_disjunct_2  1
    x[23,28]  OBJ       15.1
    x[23,28]  demand_28  1
    x[23,28]  c_disjunction_23_diajunct_1  11
    x[23,28]  c_disjunction_23_disjunct_2  1
    x[27,28]  OBJ       15.7
    x[27,28]  demand_28  1
    x[27,28]  c_disjunction_27_diajunct_1  11
    x[27,28]  c_disjunction_27_disjunct_2  1
    x[29,29]  demand_29  1
    x[29,29]  c_disjunction_29_diajunct_1  17
    x[29,29]  c_disjunction_29_disjunct_2  1
    x[14,29]  OBJ       4.1
    x[14,29]  demand_29  1
    x[14,29]  c_disjunction_14_diajunct_1  17
    x[14,29]  c_disjunction_14_disjunct_2  1
    x[12,29]  OBJ       13.7
    x[12,29]  demand_29  1
    x[12,29]  c_disjunction_12_diajunct_1  17
    x[12,29]  c_disjunction_12_disjunct_2  1
    x[30,30]  demand_30  1
    x[30,30]  c_disjunction_30_diajunct_1  25
    x[30,30]  c_disjunction_30_disjunct_2  1
    x[7,30]   OBJ       17.4
    x[7,30]   demand_30  1
    x[7,30]   c_disjunction_7_diajunct_1  25
    x[7,30]   c_disjunction_7_disjunct_2  1
    x[29,30]  OBJ       25.3
    x[29,30]  demand_30  1
    x[29,30]  c_disjunction_29_diajunct_1  25
    x[29,30]  c_disjunction_29_disjunct_2  1
    MARKER    'MARKER'                 'INTEND'
RHS
    RHS1      demand_1  1
    RHS1      demand_2  1
    RHS1      demand_3  1
    RHS1      demand_4  1
    RHS1      demand_5  1
    RHS1      demand_6  1
    RHS1      demand_7  1
    RHS1      demand_8  1
    RHS1      demand_9  1
    RHS1      demand_10  1
    RHS1      demand_11  1
    RHS1      demand_12  1
    RHS1      demand_13  1
    RHS1      demand_14  1
    RHS1      demand_15  1
    RHS1      demand_16  1
    RHS1      demand_17  1
    RHS1      demand_18  1
    RHS1      demand_19  1
    RHS1      demand_20  1
    RHS1      demand_21  1
    RHS1      demand_22  1
    RHS1      demand_23  1
    RHS1      demand_24  1
    RHS1      demand_25  1
    RHS1      demand_26  1
    RHS1      demand_27  1
    RHS1      demand_28  1
    RHS1      demand_29  1
    RHS1      demand_30  1
    RHS1      c_disjunction_1_disjunct_2  1
    RHS1      R32       1
    RHS1      c_disjunction_2_disjunct_2  5
    RHS1      R35       1
    RHS1      c_disjunction_3_disjunct_2  4
    RHS1      R38       1
    RHS1      c_disjunction_4_disjunct_2  1
    RHS1      R41       1
    RHS1      c_disjunction_5_disjunct_2  2
    RHS1      R44       1
    RHS1      c_disjunction_6_disjunct_2  3
    RHS1      R47       1
    RHS1      c_disjunction_7_disjunct_2  5
    RHS1      R50       1
    RHS1      c_disjunction_8_disjunct_2  3
    RHS1      R53       1
    RHS1      c_disjunction_9_disjunct_2  3
    RHS1      R56       1
    RHS1      c_disjunction_10_disjunct_2  3
    RHS1      R59       1
    RHS1      c_disjunction_11_disjunct_2  3
    RHS1      R62       1
    RHS1      c_disjunction_12_disjunct_2  4
    RHS1      R65       1
    RHS1      c_disjunction_13_disjunct_2  4
    RHS1      R68       1
    RHS1      c_disjunction_14_disjunct_2  4
    RHS1      R71       1
    RHS1      c_disjunction_15_disjunct_2  1
    RHS1      R74       1
    RHS1      c_disjunction_16_disjunct_2  4
    RHS1      R77       1
    RHS1      c_disjunction_17_disjunct_2  3
    RHS1      R80       1
    RHS1      c_disjunction_18_disjunct_2  2
    RHS1      R83       1
    RHS1      c_disjunction_19_disjunct_2  3
    RHS1      R86       1
    RHS1      c_disjunction_20_disjunct_2  3
    RHS1      R89       1
    RHS1      c_disjunction_21_disjunct_2  4
    RHS1      R92       1
    RHS1      c_disjunction_22_disjunct_2  2
    RHS1      R95       1
    RHS1      c_disjunction_23_disjunct_2  5
    RHS1      R98       1
    RHS1      c_disjunction_24_disjunct_2  2
    RHS1      R101      1
    RHS1      c_disjunction_25_disjunct_2  2
    RHS1      R104      1
    RHS1      c_disjunction_26_disjunct_2  4
    RHS1      R107      1
    RHS1      c_disjunction_27_disjunct_2  2
    RHS1      R110      1
    RHS1      c_disjunction_28_disjunct_2  1
    RHS1      R113      1
    RHS1      c_disjunction_29_disjunct_2  5
    RHS1      R116      1
    RHS1      c_disjunction_30_disjunct_2  2
    RHS1      R119      1
BOUNDS
 BV BND1      ind_disjunction_1_disjunct_1
 BV BND1      ind_disjunction_2_disjunct_1
 BV BND1      ind_disjunction_3_disjunct_1
 BV BND1      ind_disjunction_4_disjunct_1
 BV BND1      ind_disjunction_5_disjunct_1
 BV BND1      ind_disjunction_6_disjunct_1
 BV BND1      ind_disjunction_7_disjunct_1
 BV BND1      ind_disjunction_8_disjunct_1
 BV BND1      ind_disjunction_9_disjunct_1
 BV BND1      ind_disjunction_10_disjunct_1
 BV BND1      ind_disjunction_11_disjunct_1
 BV BND1      ind_disjunction_12_disjunct_1
 BV BND1      ind_disjunction_13_disjunct_1
 BV BND1      ind_disjunction_14_disjunct_1
 BV BND1      ind_disjunction_15_disjunct_1
 BV BND1      ind_disjunction_16_disjunct_1
 BV BND1      ind_disjunction_17_disjunct_1
 BV BND1      ind_disjunction_18_disjunct_1
 BV BND1      ind_disjunction_19_disjunct_1
 BV BND1      ind_disjunction_20_disjunct_1
 BV BND1      ind_disjunction_21_disjunct_1
 BV BND1      ind_disjunction_22_disjunct_1
 BV BND1      ind_disjunction_23_disjunct_1
 BV BND1      ind_disjunction_24_disjunct_1
 BV BND1      ind_disjunction_25_disjunct_1
 BV BND1      ind_disjunction_26_disjunct_1
 BV BND1      ind_disjunction_27_disjunct_1
 BV BND1      ind_disjunction_28_disjunct_1
 BV BND1      ind_disjunction_29_disjunct_1
 BV BND1      ind_disjunction_30_disjunct_1
 BV BND1      ind_disjunction_1_disjunct_2
 BV BND1      ind_disjunction_2_disjunct_2
 BV BND1      ind_disjunction_3_disjunct_2
 BV BND1      ind_disjunction_4_disjunct_2
 BV BND1      ind_disjunction_5_disjunct_2
 BV BND1      ind_disjunction_6_disjunct_2
 BV BND1      ind_disjunction_7_disjunct_2
 BV BND1      ind_disjunction_8_disjunct_2
 BV BND1      ind_disjunction_9_disjunct_2
 BV BND1      ind_disjunction_10_disjunct_2
 BV BND1      ind_disjunction_11_disjunct_2
 BV BND1      ind_disjunction_12_disjunct_2
 BV BND1      ind_disjunction_13_disjunct_2
 BV BND1      ind_disjunction_14_disjunct_2
 BV BND1      ind_disjunction_15_disjunct_2
 BV BND1      ind_disjunction_16_disjunct_2
 BV BND1      ind_disjunction_17_disjunct_2
 BV BND1      ind_disjunction_18_disjunct_2
 BV BND1      ind_disjunction_19_disjunct_2
 BV BND1      ind_disjunction_20_disjunct_2
 BV BND1      ind_disjunction_21_disjunct_2
 BV BND1      ind_disjunction_22_disjunct_2
 BV BND1      ind_disjunction_23_disjunct_2
 BV BND1      ind_disjunction_24_disjunct_2
 BV BND1      ind_disjunction_25_disjunct_2
 BV BND1      ind_disjunction_26_disjunct_2
 BV BND1      ind_disjunction_27_disjunct_2
 BV BND1      ind_disjunction_28_disjunct_2
 BV BND1      ind_disjunction_29_disjunct_2
 BV BND1      ind_disjunction_30_disjunct_2
 BV BND1      x[1,1]  
 BV BND1      x[20,1] 
 BV BND1      x[19,1] 
 BV BND1      x[2,2]  
 BV BND1      x[11,2] 
 BV BND1      x[24,2] 
 BV BND1      x[3,3]  
 BV BND1      x[21,3] 
 BV BND1      x[16,3] 
 BV BND1      x[4,4]  
 BV BND1      x[17,4] 
 BV BND1      x[2,4]  
 BV BND1      x[5,5]  
 BV BND1      x[6,5]  
 BV BND1      x[12,5] 
 BV BND1      x[6,6]  
 BV BND1      x[5,6]  
 BV BND1      x[9,6]  
 BV BND1      x[7,7]  
 BV BND1      x[23,7] 
 BV BND1      x[30,7] 
 BV BND1      x[8,8]  
 BV BND1      x[20,8] 
 BV BND1      x[18,8] 
 BV BND1      x[9,9]  
 BV BND1      x[6,9]  
 BV BND1      x[10,9] 
 BV BND1      x[10,10]
 BV BND1      x[9,10] 
 BV BND1      x[25,10]
 BV BND1      x[11,11]
 BV BND1      x[2,11] 
 BV BND1      x[22,11]
 BV BND1      x[12,12]
 BV BND1      x[14,12]
 BV BND1      x[29,12]
 BV BND1      x[13,13]
 BV BND1      x[17,13]
 BV BND1      x[26,13]
 BV BND1      x[14,14]
 BV BND1      x[29,14]
 BV BND1      x[12,14]
 BV BND1      x[15,15]
 BV BND1      x[3,15] 
 BV BND1      x[21,15]
 BV BND1      x[16,16]
 BV BND1      x[26,16]
 BV BND1      x[21,16]
 BV BND1      x[17,17]
 BV BND1      x[13,17]
 BV BND1      x[26,17]
 BV BND1      x[18,18]
 BV BND1      x[8,18] 
 BV BND1      x[3,18] 
 BV BND1      x[19,19]
 BV BND1      x[23,19]
 BV BND1      x[7,19] 
 BV BND1      x[20,20]
 BV BND1      x[14,20]
 BV BND1      x[29,20]
 BV BND1      x[21,21]
 BV BND1      x[3,21] 
 BV BND1      x[16,21]
 BV BND1      x[22,22]
 BV BND1      x[11,22]
 BV BND1      x[2,22] 
 BV BND1      x[23,23]
 BV BND1      x[7,23] 
 BV BND1      x[19,23]
 BV BND1      x[24,24]
 BV BND1      x[2,24] 
 BV BND1      x[13,24]
 BV BND1      x[25,25]
 BV BND1      x[10,25]
 BV BND1      x[8,25] 
 BV BND1      x[26,26]
 BV BND1      x[16,26]
 BV BND1      x[13,26]
 BV BND1      x[27,27]
 BV BND1      x[23,27]
 BV BND1      x[7,27] 
 BV BND1      x[28,28]
 BV BND1      x[23,28]
 BV BND1      x[27,28]
 BV BND1      x[29,29]
 BV BND1      x[14,29]
 BV BND1      x[12,29]
 BV BND1      x[30,30]
 BV BND1      x[7,30] 
 BV BND1      x[29,30]
ENDATA
